benchmark_instances/dzn_benchmark_instances/benchmark_instance_4-5.dzn
% Input: sequence of points
seq_points = [|2,1
              |3,2
              |2,3
              |3,3
              |3,0
              |4,2
              |3,4
              |4,4
              |0,0
              |0,1
             |];

num_points = 10;
