benchmark_instances/lp_benchmark_instances/benchmark_instance_4-5.lp
% Input: sequence of points
point(2,1).
point(3,2).
point(2,3).
point(3,3).
point(3,0).
point(4,2).
point(3,4).
point(4,4).
point(0,0).
point(0,1).
